Route #1: 31 46 35
Route #2: 1 70 54
Route #3: 59 60 82
Route #4: 23 61 100
Route #5: 93 75
Route #6: 68 90 84 66
Route #7: 38 47 26 48 96 64 34
Route #8: 83 51 81
Route #9: 3 77 63
Route #10: 25 65 78 42 28
Route #11: 44 67 88 40
Route #12: 17 8
Route #13: 20 41 22 15
Route #14: 71 62 99 98 89
Route #15: 76 55 16 69
Route #16: 50 91 52
Route #17: 19 97 27
Route #18: 30 85 11 79
Route #19: 57 72 36 29 43 45 2 7
Route #20: 4 13 74
Route #21: 32 33 53 73 95 24
Route #22: 92 9 86
Route #23: 5 12 58
Route #24: 14 49 6 37 87
Route #25: 80 94 56 21
Route #26: 39 10 18
Cost 27591.0000
Time 16.0005